c --- [ banner ] -------------------------------------------------------------
c 
c CaDiCaL Radically Simplified CDCL SAT Solver
c Copyright (c) 2016-2021 A. Biere, M. Fleury, N. Froleyks
c 
c Version 1.5.2 ca9bff05c11bde5eae4912f9932871d1527e61d8
c g++ (GCC) 9.3.0 -Wall -Wextra -O3 -DNDEBUG
c Sun May 1 02:23:23 EDT 2022 Linux gra-login1 3.10.0-1160.59.1.el7.x86_64 x86_64
c 
c --- [ limit ] --------------------------------------------------------------
c 
c setting conflict limit to 200000 conflicts (due to '200000')
c 
c --- [ parsing input ] ------------------------------------------------------
c 
c reading DIMACS file from '26.cubes825.adj'
c opening file to read '26.cubes825.adj'
c found 'p cnf 5320 924211' header
c parsed 924211 clauses in 8.51 seconds process time
c closing file '26.cubes825.adj'
c after reading 686668122 bytes 654.9 MB
c 
c --- [ options ] ------------------------------------------------------------
c 
c all options are set to their default value
c 
c --- [ solving ] ------------------------------------------------------------
c 
c time measured in process time since initialization
c 
c  seconds   reductions  redundant  irredundant
c          MB    restarts       trail      variables
c           level   conflicts       glue        remaining
c 
c *  8.51 687  0 0   0    0    0  0% 0 923580 4054 76%
c {  9.37 726  0 0   0    0    0  0% 0 923580 4054 76%
c i  9.46 727  1 0   0    1    0 33% 0 923580 4031 76%
c i  9.46 727 15 0   0    3    1 33% 3 923580 4010 75%
c i 11.87 774 99 0  16   84   77 50% 36 923580 4008 75%
c i 11.97 774 104 0  18   93   84 50% 37 923580 4007 75%
c i 12.07 774 109 0  18  110   98 49% 32 923580 4005 75%
c i 12.16 774 111 0  18  117  103 49% 30 923580 4003 75%
c i 12.42 774 120 0  20  150  130 49% 37 923580 4002 75%
c i 13.16 777 112 0  28  231  189 47% 39 923580 4001 75%
c i 13.39 778 112 0  33  250  205 47% 40 923580 4000 75%
c - 15.89 752 102 1  35  303  244 48% 37 327845 4000 75%
c i 16.06 753 99 1  35  314  253 48% 36 327845 3999 75%
c i 16.26 753 97 1  35  338  274 49% 37 327845 3998 75%
c i 16.42 753 97 1  35  351  285 49% 37 327845 3997 75%
c i 16.42 753 96 1  35  355  288 49% 36 327845 3996 75%
c i 16.71 754 94 1  36  397  319 49% 37 327845 3995 75%
c i 16.72 754 92 1  36  404  322 49% 37 327845 3994 75%
c i 16.73 754 92 1  36  406  323 49% 36 327845 3993 75%
c i 16.78 754 89 1  36  425  341 49% 36 327845 3992 75%
c 
c  seconds   reductions  redundant   irredundant
c          MB    restarts       trail       variables
c           level   conflicts       glue         remaining
c 
c i 16.86 754 90 1  37  437  352 49% 37 327845 3990 75%
c i 16.87 754 90 1  37  442  355 49% 37 327845 3980 75%
c i 16.90 754 90 1  37  444  355 49% 36 327845 3978 75%
c i 17.82 755 86 1  44  612  483 48% 33 327845 3976 75%
c i 17.86 755 85 1  44  636  500 48% 32 327845 3975 75%
c i 17.92 755 82 1  44  680  539 49% 31 327845 3974 75%
c i 17.93 755 81 1  44  683  541 49% 31 327845 3973 75%
c i 17.93 755 81 1  44  686  543 49% 31 327845 3972 75%
c i 17.94 755 81 1  44  687  543 49% 31 327845 3971 75%
c i 17.94 755 81 1  44  689  544 49% 31 327845 3970 75%
c i 18.17 756 80 1  51  752  600 50% 32 327845 3969 75%
c i 18.27 756 77 1  54  806  649 50% 32 327845 3968 75%
c i 18.30 756 77 1  54  816  658 50% 32 327845 3967 75%
c i 18.39 756 76 1  54  848  681 50% 32 327845 3966 75%
c i 18.51 756 71 1  55  980  785 51% 32 327845 3965 75%
c } 18.58 756 71 1  55 1000  803 51% 32 327845 3965 75%
c [ 18.58 756  0 1  55 1000  803  0% 0 327845 3965 75%
c O 18.69 756 85 1  55 1003  806 52% 11 327845 3965 75%
c i 18.83 756 29 1  55 1017  818 51% 10 327845 3964 75%
c i 18.84 756 27 1  55 1019  819 51% 10 327845 3963 74%
c 
c  seconds   reductions  redundant   irredundant
c          MB    restarts       trail       variables
c           level   conflicts       glue         remaining
c 
c i 18.88 756 23 1  55 1034  830 53% 11 327845 3962 74%
c i 18.98 756 17 1  55 1099  878 52% 10 327845 3961 74%
c i 19.07 756 18 1  55 1135  909 53% 11 327845 3960 74%
c i 19.23 756 17 1  55 1185  946 53% 11 327845 3959 74%
c - 19.77 895 18 2  55 1215  865 53% 12 327546 3959 74%
c i 19.86 895 18 2  55 1230  877 53% 12 327546 3958 74%
c i 19.87 895 18 2  55 1234  880 53% 12 327546 3957 74%
c i 20.03 895 19 2  55 1282  917 53% 13 327546 3956 74%
c i 20.08 895 19 2  55 1293  926 53% 13 327546 3955 74%
c i 20.08 895 19 2  55 1294  926 53% 13 327546 3954 74%
c i 20.19 895 20 2  55 1366  983 53% 14 327546 3953 74%
c i 20.37 895 20 2  55 1531 1126 54% 15 327546 3952 74%
c i 20.42 895 21 2  55 1550 1143 54% 16 327546 3951 74%
c i 20.47 895 22 2  55 1586 1173 54% 16 327546 3950 74%
c i 20.64 895 26 2  55 1777 1328 54% 20 327546 3949 74%
c - 21.60 892 35 3  56 2578 1538 54% 27 327517 3949 74%
c i 21.84 844 35 3  56 2580 1539 27% 27 327517 3948 74%
c ] 22.29 844 35 3  56 3003 1833 39% 28 327517 3948 74%
c { 22.29 844 71 3  56 3003 1833 69% 32 327517 3948 74%
c F 22.31 844 71 3  56 3004 1834 69% 32 327517 3948 74%
c 
c  seconds   reductions  redundant   irredundant
c          MB    restarts       trail       variables
c           level   conflicts       glue         remaining
c 
c i 22.86 844 68 3  60 3117 1903 64% 30 327517 3947 74%
c i 22.86 844 68 3  60 3118 1903 64% 30 327517 3946 74%
c i 22.99 843 68 3  60 3145 1926 63% 30 327517 3945 74%
c i 23.06 844 67 3  60 3165 1942 63% 30 327517 3944 74%
c i 23.51 843 69 3  68 3232 1999 61% 31 327517 3943 74%
c i 23.99 844 69 3  88 3360 2099 58% 31 327517 3942 74%
c i 24.03 844 69 3  88 3376 2111 58% 31 327517 3941 74%
c i 24.19 844 70 3  93 3392 2125 58% 32 327517 3940 74%
c i 24.44 844 69 3 106 3448 2170 57% 32 327517 3939 74%
c i 24.44 844 69 3 106 3450 2171 57% 32 327517 3938 74%
c i 24.55 844 69 3 110 3479 2196 57% 32 327517 3937 74%
c i 25.76 844 69 3 147 3739 2413 53% 33 327517 3936 74%
c i 26.56 844 70 3 200 3994 2628 51% 34 327517 3935 74%
c i 26.67 844 70 3 201 4007 2637 51% 34 327517 3934 74%
c i 27.16 844 68 3 213 4212 2803 50% 34 327517 3933 74%
c i 27.26 844 67 3 213 4254 2839 49% 34 327517 3932 74%
c - 28.17 839 66 4 215 4396 2145 49% 33 327468 3932 74%
c i 28.96 839 59 4 225 4977 2557 47% 31 327468 3931 74%
c d 29.43 839 59 4 225 5001 2574 47% 31 236236 3917 74%
c 3 29.46 839 59 4 225 5001 3791 47% 31 236236 3917 74%
c 
c  seconds   reductions  redundant   irredundant
c          MB    restarts       trail       variables
c           level   conflicts       glue         remaining
c 
c 2 29.52 839 59 4 225 5001 3915 47% 31 236178 3911 74%
c p 34.03 839 59 4 225 5001 8388 47% 31 236178 3848 72%
c d 34.37 839 59 4 225 5001 7959 47% 31 235774 3846 72%
c # 35.64 839 53 4 236 6005 8753 44% 29 235774 3846 72%
c - 36.34 772 49 5 236 6671 2858 44% 27 235774 3846 72%
c } 36.48 772 47 5 237 7004 3107 43% 27 235774 3846 72%
c [ 36.48 772 35 5 237 7004 3107 39% 28 235774 3846 72%
c - 37.60 773 30 6 238 9144 3209 40% 25 235774 3846 72%
c I 38.03 773 30 6 239 10006 3741 40% 25 235774 3846 72%
c - 39.14 773 39 7 241 12026 3815 39% 31 235774 3846 72%
c 2 40.71 773 45 7 242 15002 7425 39% 37 235768 3846 72%
c p 41.77 773 45 7 242 15002 11550 39% 37 235768 3846 72%
c ] 41.87 773 45 7 242 15007 11555 39% 37 235768 3846 72%
c { 41.87 773 47 7 242 15007 11555 43% 27 235768 3846 72%
c B 41.87 773 47 7 242 15008 11556 43% 27 235768 3846 72%
c - 43.03 773 49 8 294 15319 4465 43% 28 235768 3846 72%
c s 43.58 773 48 8 309 15665 4633 42% 28 233912 3846 72%
c v 48.19 773 48 8 309 15665 4633 42% 28 233774 3846 72%
c t 48.26 773 48 8 309 15665 4621 42% 28 233726 3846 72%
c e 48.80 775 48 8 309 15665 4419 42% 28 228117 1054 20%
c 
c  seconds   reductions   redundant   irredundant
c          MB    restarts        trail       variables
c           level    conflicts       glue         remaining
c 
c s 48.90 775 48 8 309 15665 4419 42% 28 227805 1054 20%
c - 53.45 687 47 9 521 19025 5150 64% 28 227805 1054 20%
c W 54.62 687 43 9 529 21010 6505 65% 27 227805 1054 20%
c - 56.51 775 41 10 589 23097 5278 65% 26 227805 1054 20%
c - 57.97 688 37 11 622 27580 5645 65% 25 227805 1054 20%
c F 58.20 688 36 11 622 28012 5900 65% 25 227805 1054 20%
c 3 59.19 688 36 11 640 30003 7993 65% 24 227805 1054 20%
c 2 59.23 688 36 11 640 30003 8007 65% 24 227804 1054 20%
c p 61.12 687 36 11 640 30003 9926 65% 24 227804 1050 20%
c } 63.49 688 36 11 777 31010 10759 65% 24 227804 1050 20%
c [ 63.49 688 45 11 777 31010 10759 146% 37 227804 1050 20%
c - 64.30 688 43 12 777 32469 6585 134% 35 227792 1050 20%
c B 65.72 688 39 12 780 36013 8751 115% 31 227792 1050 20%
c - 66.68 687 38 13 781 37766 7230 109% 31 227792 1050 20%
c - 70.43 687 37 14 784 43467 8401 97% 30 227792 1050 20%
c W 72.41 687 37 14 784 45015 9570 94% 30 227792 1050 20%
c s 73.74 687 37 14 785 46689 10746 92% 30 227414 1050 20%
c v 76.18 688 37 14 785 46689 10746 92% 30 227352 1050 20%
c t 76.31 688 37 14 785 46689 10746 92% 30 227351 1050 20%
c e 76.81 688 37 14 785 46689 10727 92% 30 227349 1047 20%
c 
c  seconds   reductions     redundant   irredundant
c          MB     restarts         trail       variables
c           level     conflicts        glue         remaining
c 
c s 76.95 688 37 14 785 46689 10727 92% 30 226959 1047 20%
c - 79.55 688 36 15 785 49578 8547 89% 30 226959 1047 20%
c p 80.40 688 36 15 785 50010 11474 88% 30 226959 1047 20%
c O 83.85 688 35 15 786 55018 14842 84% 29 226959 1047 20%
c - 84.34 688 34 16 787 56087 9028 84% 29 226959 1047 20%
c - 86.48 688 32 17 792 63003 8401 80% 27 226959 1047 20%
c ] 86.48 688 32 17 792 63012 8409 80% 27 226959 1047 20%
c { 86.48 688 36 17 792 63012 8409 65% 24 226959 1047 20%
c B 87.40 688 35 17 818 66021 10506 65% 24 226959 1047 20%
c - 89.85 688 32 18 861 70325 9639 65% 23 226959 1047 20%
c 3 92.80 688 31 18 939 75010 13610 65% 22 226959 1047 20%
c p 93.69 688 31 18 939 75010 15923 65% 22 226959 1047 20%
c W 95.82 688 30 18 1023 78022 18122 65% 22 226959 1047 20%
c - 95.90 688 30 19 1023 78058 10684 65% 22 226959 1047 20%
c - 102.19 688 30 20 1432 86193 11477 66% 21 226959 1047 20%
c # 107.36 688 30 20 1771 91023 14958 66% 21 226959 1047 20%
c - 109.81 688 29 21 1875 94737 12381 66% 21 226959 1047 20%
c - 116.98 688 29 22 2242 103689 13224 65% 21 226959 1047 20%
c p 119.66 688 28 22 2242 105011 17769 65% 21 226959 1046 20%
c s 119.89 688 28 22 2242 105011 17766 65% 21 226396 1046 20%
c 
c  seconds    reductions       redundant   irredundant
c           MB     restarts           trail       variables
c            level      conflicts         glue         remaining
c 
c v 123.45 688 28 22 2242 105011 17766 65% 21 226343 1046 20%
c w 123.65 688 28 22 2242 105011 17765 65% 21 226343 1046 20%
c e 124.17 688 28 22 2242 105011 17749 65% 21 226336 1042 20%
c s 124.39 688 28 22 2242 105011 17749 65% 21 225585 1042 20%
c B 125.09 688 28 22 2242 105024 17761 65% 21 225585 1042 20%
c - 130.60 688 27 23 2484 113047 13824 65% 20 225585 1042 20%
c W 137.00 688 27 23 2716 120026 18600 66% 20 225585 1042 20%
c - 137.70 688 27 24 2730 122790 13786 66% 20 225585 1042 20%
c } 138.57 688 26 24 2737 127012 16036 66% 19 225585 1042 20%
c [ 138.57 688 32 24 2737 127012 16036 80% 27 225585 1042 20%
c ] 139.47 688 32 24 2737 130588 18154 79% 27 225585 1042 20%
c 1 139.47 688 32 24 2737 130588 18154 79% 27 225585 1042 20%
c 
c --- [ writing output ] -----------------------------------------------------
c 
c writing simplified CNF to DIMACS file 'simp/26.cubes825.adj.simp1'
c * 139.47 688 32 24 2737 130588 18154 79% 27 225585 1042 20%
c opening file to write 'simp/26.cubes825.adj.simp1'
c writing 'p cnf 5320 225585' header
c closing file 'simp/26.cubes825.adj.simp1'
c after writing 95144404 bytes 90.7 MB
c wrote 225585 clauses in 0.58 seconds process time
c 
c --- [ writing extension ] --------------------------------------------------
c 
c writing extension stack to 'simp/26.cubes825.adj.ext1'
c opening file to write 'simp/26.cubes825.adj.ext1'
c closing file 'simp/26.cubes825.adj.ext1'
c after writing 176435 bytes 0.2 MB
c wrote 7766 witnesses in 0.00 seconds process time
c 
c --- [ result ] -------------------------------------------------------------
c 
s SATISFIABLE
c 
c --- [ run-time profiling ] -------------------------------------------------
c 
c process time taken by individual solving procedures
c (percentage relative to process time for solving)
c 
c       104.07   79.46% search
c        74.12   56.60% unstable
c        26.89   20.54% simplify
c        26.68   20.37% stable
c        10.94    8.35% vivify
c        10.89    8.31% probe
c         8.51    6.49% parse
c         2.94    2.24% elim
c         2.40    1.84% walk
c         0.90    0.69% subsume
c         0.86    0.66% lucky
c         0.20    0.16% ternary
c   =================================
c       130.96   93.51% solve
c 
c last line shows process time for solving
c (percentage relative to total process time)
c 
c --- [ statistics ] ---------------------------------------------------------
c 
c chronological:             22912        17.55 %  of conflicts
c conflicts:                130588       997.16    per second
c decisions:                289950      2214.03    per second
c eliminated:                 2799        52.61 %  of all variables
c fixed:                      1463        27.50 %  of all variables
c learned:                  127631        97.74 %  per conflict
c learned_lits:           25530053       100.00 %  learned literals
c minimized:                     0         0.00 %  learned literals
c shrunken:               15200077        59.54 %  learned literals
c minishrunken:            2377383         9.31 %  learned literals
c propagations:           11027942         0.08 M  per second
c reduced:                   73388        56.20 %  per conflict
c rephased:                     15      8705.87    interval
c restarts:                   2737        47.71    interval
c stabilizing:                   4        34.91 %  of conflicts
c substituted:                  16         0.30 %  of all variables
c subsumed:                  40851         1.82 %  of all clauses
c strengthened:              14057         0.63 %  of all clauses
c ternary:                    5215         0.49 %  of resolved
c vivified:                    277         0.01 %  of all clauses
c walked:                        4     32647.00    interval
c weakened:                   6303         3.11    average size
c 
c seconds are measured in process time for solving
c 
c --- [ resources ] ----------------------------------------------------------
c 
c total process time since initialization:       140.05    seconds
c total real time since initialization:          140.48    seconds
c maximum resident set size of process:         1030.99    MB
c 
c --- [ shutting down ] ------------------------------------------------------
c 
c exit 10
WARNING! DIMACS header mismatch: wrong number of variables.
============================[ Problem Statistics ]=============================
|                                                                             |
|  Number of variables:          2943                                         |
|  Number of clauses:          225589                                         |
|  Parse time:                   1.37 s                                       |
|  Simplification time:          0.03 s                                       |
|                                                                             |
============================[ Search Statistics ]====================================================
| Conflicts |          ORIGINAL         |          LEARNT          | Num Sols |      SUBGRAPHS      |
|           |    Vars  Clauses Literals |    Limit  Clauses Lit/Cl |          | Canonical Noncanon. |
=====================================================================================================
|       115 |    2868   225604 21301402 |     2000      115    122 |        0 |        17        15 |
|       348 |    2859   225687 21303497 |     2000      347     70 |        0 |        48        98 |
|       602 |    2859   225716 21304353 |     2000      601     88 |        0 |        68       127 |
|       943 |    2859   225720 21304421 |     2000      942     92 |        0 |        76       131 |
|      1463 |    2859   225734 21304972 |     2000     1462     96 |        0 |       106       145 |
|      2240 |    2859   225752 21305861 |     3603     1243     69 |        0 |       136       163 |
|      3467 |    2859   225840 21308623 |     3603     2470     87 |        0 |       156       251 |
|      5224 |    2859   225889 21309828 |     5006     2430     69 |        0 |       200       300 |
|      7846 |    2859   225949 21311599 |     6302     2548     50 |        0 |       269       360 |
|     11756 |    2859   226015 21313500 |     7550     3306     57 |        0 |       323       426 |
|     17670 |    2859   226163 21316718 |     8775     5445     72 |        0 |       360       574 |
|     26552 |    2859   226396 21322179 |     9989     9941     87 |        0 |       453       807 |
|     42546 |    2859   229416 21385326 |    13609     9155     53 |        0 |      1385      3827 |
|     63434 |    2859   230843 21415049 |    16007    15841     80 |        0 |      1930      5254 |
|     93234 |    2859   231451 21427748 |    20814    10048     36 |        0 |      2207      5862 |
|    137611 |    2859   232039 21440352 |    24412    21423     61 |        0 |      2489      6450 |
|    203696 |    2859   232440 21450808 |    30408    20504     55 |        0 |      2686      6851 |
|    302823 |    2859   233041 21464611 |    37610    19433     40 |        0 |      3008      7452 |
|    451926 |    2859   234123 21489950 |    46010    24336     45 |        0 |      3281      8766 |
|    674893 |    2859   235407 21523205 |    55615    46508     72 |        0 |      3938     10050 |
|   1019341 |    2859   247330 21797658 |    68815    52156     66 |        0 |      5464     21973 |
|   1538274 |    2859   267475 22260458 |    84426    77100     75 |        0 |      9062     42118 |
|   2290918 |    2859   271937 22370565 |   103620    82538     62 |        0 |     10547     46580 |
|   3431598 |    2859   290343 22797012 |   127622    73220     53 |        0 |     13751     64986 |
|   5151942 |    2859   327276 23749806 |   156422    96764     58 |        0 |     18775    101919 |
|   7859206 |    2859   509424 28565702 |   193610   100816     42 |        0 |     31863    284067 |
|  11714520 |    2854   474397 25183799 |   202691   178211     83 |        0 |     42833    351706 |
|  17734211 |    2853   807557 30864408 |   290826   191037     64 |        0 |     74023    689885 |
slurmstepd: error: *** JOB 61843846 ON gra1238 CANCELLED AT 2022-06-09T10:55:56 DUE TO TIME LIMIT ***
